outputs/case_130.model.txt
solicitation_handling_established = True
internal_control_established = True
audit_system_established = True
solicitation_handling_executed = True
audit_system_executed = True
internal_control_executed = True
internal_control_audit_solicitation_compliance = True
penalty = False
solicitation_handling_compliance = True
audit_system_compliance = True
internal_control_compliance = True